VACCINE = Vaccine(1..2);
m = 24;
age = [ADULT, YOUTH, SENIOR, AGED, ANCIENT, ADULT, AGED, ADULT, ANCIENT, SENIOR, SENIOR, AGED, ADULT, BABY, SENIOR, AGED, ANCIENT, CHILD, YOUTH, ANCIENT, SENIOR, YOUTH, ADULT, ANCIENT];
gender = [FEMALE, MALE, FEMALE, OTHER, OTHER, MALE, MALE, OTHER, FEMALE, OTHER, OTHER, OTHER, FEMALE, FEMALE, MALE, MALE, FEMALE, MALE, FEMALE, OTHER, FEMALE, MALE, FEMALE, OTHER];
health = [POOR, POOR, GOOD, COMPROMISED, POOR, COMPROMISED, COMPROMISED, GOOD, COMPROMISED, GOOD, POOR, COMPROMISED, COMPROMISED, GOOD, POOR, POOR, POOR, GOOD, POOR, COMPROMISED, GOOD, COMPROMISED, POOR, GOOD];
exposure = [HIGH, LOW, AVERAGE, HIGH, EXTREME, AVERAGE, AVERAGE, HIGH, LOW, AVERAGE, AVERAGE, LOW, HIGH, EXTREME, AVERAGE, AVERAGE, HIGH, HIGH, AVERAGE, HIGH, EXTREME, LOW, HIGH, LOW];
size = [6, 8, 5, 7, 8, 4, 7, 9, 7, 8, 7, 7, 9, 7, 5, 7, 5, 4, 6, 6, 5, 6, 5, 7];
minsize = 4;
age_group_min = [0, 0, 1, 0, 1, 0, 0];
age_group_max = [20, 12, 21, 8, 18, 20, 19];
max_people_diff = 70;
max_share_vaccines = 2;
health_information = {2, 10, 11};
exposure_information = {5, 6, 11, 17};